units real
dimension 3
processors * * *
boundary p p p
atom_style atomic

region whole block 0 50 0 50 -0.80 0.80
create_box 1 whole

lattice bcc 2.935
create_atoms 1 region whole

pair_style eam/fs
pair_coeff * * Fe_mm.eam.fs Fe

# Equilibrium
reset_timestep 0
timestep 0.009

minimize 0.0 1e-3 1000 10000

velocity all create 300 23456 mom no rot no

fix 1 all npt temp 300 300 100 iso 1.01 1.01 1000
run 20000
unfix 1

fix 1 all npt temp 300 775 100 iso 1.01 1.01 1000 
run 345000 
unfix 1

thermo 2000
thermo_style custom step temp

print "Equilibrium reached"


#isothermal ageing
fix 1 all npt temp 775 775 1000 iso 1.01 1.01 1000
run 10000
unfix 1

thermo 2000
thermo_style custom step temp

dump 1 all custom 250 dump.Fetest.* id xs ys zs

thermo 500
thermo_style custom step temp

run 4000


